
Gurobi 11.0.3 (linux64) logging started Mon Aug 25 16:17:04 2025

Set parameter LogFile to value "/home/yihong/Coding/OR_SUC/SUC_epstheta_results_bigM100000_thread4/case24_ieee_rts_theta0.001_epsilon0.2_gurobi_seed140000_num_gen100_N_WDR50_load_scaling_factor1_proposed_eps_T2quadra_cost_bc1.03.txt"
Set parameter TimeLimit to value 3600
Gurobi Optimizer version 11.0.3 build v11.0.3rc0 (linux64 - "Ubuntu 20.04.6 LTS")

CPU model: AMD EPYC 7532 32-Core Processor, instruction set [SSE2|AVX|AVX2]
Thread count: 64 physical cores, 128 logical processors, using up to 4 threads

Academic license 2399124 - for non-commercial use only - registered to yi___@ed.ac.uk
Optimize a model with 5070 rows, 2531 columns and 192230 nonzeros
Model fingerprint: 0xb01e713e
Model has 200 quadratic constraints
Variable types: 2331 continuous, 200 integer (200 binary)
Coefficient statistics:
  Matrix range     [3e-04, 2e+03]
  QMatrix range    [2e-03, 8e-03]
  QLMatrix range   [8e-02, 6e+01]
  Objective range  [1e+00, 1e+00]
  Bounds range     [1e+00, 1e+00]
  RHS range        [5e-02, 8e+03]
Presolve removed 4431 rows and 1259 columns
Presolve time: 0.04s
Presolved: 639 rows, 1272 columns, 6514 nonzeros
Presolved model has 200 quadratic constraint(s)
Variable types: 1072 continuous, 200 integer (200 binary)

Root relaxation: objective 1.972888e+03, 345 iterations, 0.00 seconds (0.00 work units)

    Nodes    |    Current Node    |     Objective Bounds      |     Work
 Expl Unexpl |  Obj  Depth IntInf | Incumbent    BestBd   Gap | It/Node Time

     0     0 1972.88849    0    4          - 1972.88849      -     -    0s
     0     0 2269.17218    0   92          - 2269.17218      -     -    0s
     0     0 11736.1784    0   80          - 11736.1784      -     -    0s
     0     0 12902.9307    0   82          - 12902.9307      -     -    0s
     0     0 28985.7176    0   44          - 28985.7176      -     -    0s
     0     0 29000.3912    0   44          - 29000.3912      -     -    0s
     0     0 29027.0645    0   12          - 29027.0645      -     -    0s
     0     0 29027.2005    0   12          - 29027.2005      -     -    0s
     0     0 29027.2005    0   12          - 29027.2005      -     -    0s
     0     2 29027.2005    0   12          - 29027.2005      -     -    0s
H   34    36                    29035.154550 29029.4260  0.02%   4.4    0s
*   34    36              10    29035.154550 29029.4260  0.02%   4.5    0s

Cutting planes:
  Gomory: 11
  Implied bound: 89
  MIR: 23
  Flow cover: 147

Explored 39 nodes (1811 simplex iterations) in 0.36 seconds (0.30 work units)
Thread count was 4 (of 128 available processors)

Solution count 2: 29035.2 29035.2 

Optimal solution found (tolerance 1.00e-03)
Warning: max constraint violation (1.6300e-07) exceeds tolerance
Best objective 2.903515454994e+04, best bound 2.902942595930e+04, gap 0.0197%

Gurobi 11.0.3 (linux64) logging started Mon Aug 25 16:17:05 2025

Set parameter LogFile to value "/home/yihong/Coding/OR_SUC/SUC_epstheta_results_bigM100000_thread4/case24_ieee_rts_theta0.001_epsilon0.2_gurobi_seed140000_num_gen100_N_WDR50_load_scaling_factor1_proposed_eps_T2quadra_cost_bc1.03.txt"
Set parameter TimeLimit to value 3600
Gurobi Optimizer version 11.0.3 build v11.0.3rc0 (linux64 - "Ubuntu 20.04.6 LTS")

CPU model: AMD EPYC 7532 32-Core Processor, instruction set [SSE2|AVX|AVX2]
Thread count: 64 physical cores, 128 logical processors, using up to 4 threads

Academic license 2399124 - for non-commercial use only - registered to yi___@ed.ac.uk
Optimize a model with 5070 rows, 2532 columns and 192799 nonzeros
Model fingerprint: 0x0edd0998
Model has 201 quadratic constraints
Variable types: 2332 continuous, 200 integer (200 binary)
Coefficient statistics:
  Matrix range     [3e-04, 2e+03]
  QMatrix range    [2e-03, 5e+01]
  QLMatrix range   [8e-02, 6e+01]
  Objective range  [1e+00, 1e+00]
  Bounds range     [2e-01, 1e+00]
  RHS range        [1e+00, 3e+04]
  QRHS range       [5e-02, 5e-02]
Presolve removed 4254 rows and 1173 columns
Presolve time: 0.04s
Presolved: 1018 rows, 1559 columns, 8378 nonzeros
Presolved model has 200 quadratic constraint(s)
Presolved model has 1 bilinear constraint(s)

Solving non-convex MIQCP

Variable types: 1355 continuous, 204 integer (204 binary)

Root relaxation: objective 1.360288e-05, 1272 iterations, 0.02 seconds (0.03 work units)

    Nodes    |    Current Node    |     Objective Bounds      |     Work
 Expl Unexpl |  Obj  Depth IntInf | Incumbent    BestBd   Gap | It/Node Time

     0     0    0.00001    0    3          -    0.00001      -     -    0s
     0     0    0.00001    0    3          -    0.00001      -     -    0s
     0     0    0.00001    0    3          -    0.00001      -     -    0s
     0     0    0.00001    0    1          -    0.00001      -     -    0s
     0     0    0.00001    0    1          -    0.00001      -     -    0s
H    0     0                       0.0007979    0.00001  98.3%     -    0s
     0     0    0.00001    0    3    0.00080    0.00001  98.3%     -    0s
     0     0    0.00001    0    3    0.00080    0.00001  98.3%     -    0s
     0     0    0.00001    0    3    0.00080    0.00001  98.3%     -    0s
     0     0    0.00001    0    3    0.00080    0.00001  98.3%     -    0s
H    0     0                       0.0003843    0.00001  96.4%     -    0s
H    0     0                       0.0003774    0.00001  96.3%     -    0s
H    0     0                       0.0003686    0.00001  96.2%     -    0s
     0     2    0.00035    0    5    0.00037    0.00035  4.25%     -    0s
H   31    15                       0.0003603    0.00035  1.72%  14.2    0s
*   31    15               7       0.0003603    0.00035  1.72%  14.2    0s
H   64    15                       0.0003577    0.00036  0.61%  10.8    0s
*   64    15               9       0.0003577    0.00036  0.61%  11.0    0s
H   71     1                       0.0003558    0.00036  0.08%  10.4    0s
*   71     1               7       0.0003558    0.00036  0.08%  10.7    0s

Cutting planes:
  Implied bound: 7
  MIR: 1
  Flow cover: 3
  RLT: 1

Explored 85 nodes (2538 simplex iterations) in 0.66 seconds (0.50 work units)
Thread count was 4 (of 128 available processors)

Solution count 7: 0.000355767 0.000357677 0.0003603 ... 0.000797935

Optimal solution found (tolerance 1.00e-03)
Best objective 3.557665721546e-04, best bound 3.554951837509e-04, gap 0.0763%
